	Costo	Iter.	Tiempo
1	532,54	215	70,031
2	853,77	362	195,062
3	842,51	224	296,297
4	1097,13	96	301,718
5	1400,45	54	302,546
6	562,01	145	42,641
7	922,25	142	300,092
8	895,73	108	300,218
9	1295,66	3	326,421
10	1564,75	2	493,656
11	1229,36	135	300,109
12	856,6	194	156,952
13	1601,79	159	176,843
14	878,75	227	94,016
